(declare-fun src_reg_7_53 () (_ BitVec 32))
(declare-fun src_reg_7_19 () (_ BitVec 32))
(declare-fun src_reg_7_52 () (_ BitVec 64))
(declare-fun src_reg_7_18 () (_ BitVec 64))
(declare-fun src_reg_7_51 () (_ BitVec 64))
(declare-fun src_reg_7_17 () (_ BitVec 64))
(declare-fun src_reg_7_50 () (_ BitVec 64))
(declare-fun src_reg_7_16 () (_ BitVec 64))
(declare-fun src_reg_7_49 () (_ BitVec 64))
(declare-fun src_reg_7_15 () (_ BitVec 64))
(declare-fun src_reg_7_48 () (_ BitVec 64))
(declare-fun src_reg_7_14 () (_ BitVec 64))
(declare-fun src_reg_7_47 () (_ BitVec 64))
(declare-fun src_reg_7_13 () (_ BitVec 64))
(declare-fun src_reg_7_46 () (_ BitVec 32))
(declare-fun src_reg_7_12 () (_ BitVec 32))
(declare-fun src_reg_7_45 () (_ BitVec 32))
(declare-fun src_reg_7_11 () (_ BitVec 32))
(declare-fun src_reg_7_44 () (_ BitVec 32))
(declare-fun dst_reg_7_43 () (_ BitVec 32))
(declare-fun dst_reg_7_9 () (_ BitVec 32))
(declare-fun dst_reg_7_42 () (_ BitVec 64))
(declare-fun dst_reg_7_41 () (_ BitVec 64))
(declare-fun dst_reg_7_40 () (_ BitVec 64))
(declare-fun dst_reg_7_39 () (_ BitVec 64))
(declare-fun dst_reg_7_38 () (_ BitVec 64))
(declare-fun i11.i.i_7_30 () (_ BitVec 64))
(declare-fun dst_reg_7_37 () (_ BitVec 64))
(declare-fun and4.i.i.i_7_33 () (_ BitVec 64))
(declare-fun dst_reg_7_36 () (_ BitVec 32))
(declare-fun dst_reg_7_2 () (_ BitVec 32))
(declare-fun dst_reg_7_35 () (_ BitVec 32))
(declare-fun dst_reg_7_1 () (_ BitVec 32))
(declare-fun dst_reg_7_34 () (_ BitVec 32))
(declare-fun neg.i.i.i_7_32 () (_ BitVec 64))
(declare-fun i9.i.i_7_29 () (_ BitVec 64))
(declare-fun src_reg_7_10 () (_ BitVec 32))
(declare-fun dst_reg_7_8 () (_ BitVec 64))
(declare-fun dst_reg_7_7 () (_ BitVec 64))
(declare-fun dst_reg_7_6 () (_ BitVec 64))
(declare-fun dst_reg_7_5 () (_ BitVec 64))
(declare-fun dst_reg_7_4 () (_ BitVec 64))
(declare-fun dst_reg_7_3 () (_ BitVec 64))
(declare-fun dst_reg_7_0 () (_ BitVec 32))
(assert (and (= dst_reg_7_0 dst_reg_7_0)
     (= dst_reg_7_1 dst_reg_7_1)
     (= dst_reg_7_2 dst_reg_7_2)
     (= dst_reg_7_3 dst_reg_7_3)
     (= dst_reg_7_4 dst_reg_7_4)
     (= dst_reg_7_5 dst_reg_7_5)
     (= dst_reg_7_6 dst_reg_7_6)
     (= dst_reg_7_7 dst_reg_7_7)
     (= dst_reg_7_8 dst_reg_7_8)
     (= dst_reg_7_9 dst_reg_7_9)
     (= src_reg_7_10 src_reg_7_10)
     (= src_reg_7_11 src_reg_7_11)
     (= src_reg_7_12 src_reg_7_12)
     (= src_reg_7_13 src_reg_7_13)
     (= src_reg_7_14 src_reg_7_14)
     (= src_reg_7_15 src_reg_7_15)
     (= src_reg_7_16 src_reg_7_16)
     (= src_reg_7_17 src_reg_7_17)
     (= src_reg_7_18 src_reg_7_18)
     (= src_reg_7_19 src_reg_7_19)
     (= #x0000000000000000 i9.i.i_7_29)
     (= #xffffffffffffffff i11.i.i_7_30)
     (= neg.i.i.i_7_32 (bvxor i11.i.i_7_30 #xffffffffffffffff))
     (= and4.i.i.i_7_33 (bvand i9.i.i_7_29 neg.i.i.i_7_32))
     (= #x00000001 dst_reg_7_34)
     (= dst_reg_7_1 dst_reg_7_35)
     (= dst_reg_7_2 dst_reg_7_36)
     (= and4.i.i.i_7_33 dst_reg_7_37)
     (= i11.i.i_7_30 dst_reg_7_38)
     (= #x8000000000000000 dst_reg_7_39)
     (= #x7fffffffffffffff dst_reg_7_40)
     (= #x0000000000000000 dst_reg_7_41)
     (= #xffffffffffffffff dst_reg_7_42)
     (= dst_reg_7_9 dst_reg_7_43)
     (= #x00000001 src_reg_7_44)
     (= src_reg_7_11 src_reg_7_45)
     (= src_reg_7_12 src_reg_7_46)
     (= src_reg_7_13 src_reg_7_47)
     (= src_reg_7_14 src_reg_7_48)
     (= src_reg_7_15 src_reg_7_49)
     (= src_reg_7_16 src_reg_7_50)
     (= src_reg_7_17 src_reg_7_51)
     (= src_reg_7_18 src_reg_7_52)
     (= src_reg_7_19 src_reg_7_53)))

;{"dst_reg":["dst_reg_7_0",[""],"dst_reg_7_1","dst_reg_7_2",["dst_reg_7_3","dst_reg_7_4"],"dst_reg_7_5","dst_reg_7_6","dst_reg_7_7","dst_reg_7_8","dst_reg_7_9"],"src_reg":["src_reg_7_10",[""],"src_reg_7_11","src_reg_7_12",["src_reg_7_13","src_reg_7_14"],"src_reg_7_15","src_reg_7_16","src_reg_7_17","src_reg_7_18","src_reg_7_19"]}
;{"dst_reg":["dst_reg_7_34",[""],"dst_reg_7_35","dst_reg_7_36",["dst_reg_7_37","dst_reg_7_38"],"dst_reg_7_39","dst_reg_7_40","dst_reg_7_41","dst_reg_7_42","dst_reg_7_43"],"src_reg":["src_reg_7_44",[""],"src_reg_7_45","src_reg_7_46",["src_reg_7_47","src_reg_7_48"],"src_reg_7_49","src_reg_7_50","src_reg_7_51","src_reg_7_52","src_reg_7_53"]}
